results_rootrelaxation/bin012_050_036.srr.sol
solution status: optimal solution found
objective value:                                    0
_var41_                             0.149386278516018 	(obj:0)
_var175_                            0.038453260281673 	(obj:0)
_var208_                            0.345121587960789 	(obj:0)
_var294_                            0.188726371429921 	(obj:0)
_var317_                            0.441831981602229 	(obj:0)
_var479_                            0.148664108131894 	(obj:0)
_var511_                            0.412329070410694 	(obj:0)
_var727_                           0.0396965527619222 	(obj:0)
_var728_                            0.351310298297687 	(obj:0)
_var729_                            0.259534221687178 	(obj:0)
_var731_                          0.00421461349700508 	(obj:0)
_var734_                            0.120254628273433 	(obj:0)
_var738_                            0.195332596156265 	(obj:0)
_var739_                            0.209705698608874 	(obj:0)
_var741_                            0.294162630797029 	(obj:0)
_var751_                            0.146107217941892 	(obj:0)
_var754_                             0.17156942857266 	(obj:0)
_var755_                            0.121121109391866 	(obj:0)
_var761_                             0.21510563360737 	(obj:0)
_var764_                            0.226726347994858 	(obj:0)
_var766_                            0.157048931823054 	(obj:0)
_var768_                            0.271742046412544 	(obj:0)
_var772_                           0.0582941361121615 	(obj:0)
_var775_                           0.0569262676988806 	(obj:0)
_var777_                            0.105475112257093 	(obj:0)
_var778_                           0.0946271386819963 	(obj:0)
_var781_                            0.558168018397771 	(obj:0)
_var784_                           0.0612469557527393 	(obj:0)
_var787_                            0.163169187068047 	(obj:0)
_var788_                            0.145620631747989 	(obj:0)
_var789_                           0.0918661166413011 	(obj:0)
_var790_                            0.212461786949253 	(obj:0)
_var791_                            0.243646473236829 	(obj:0)
_var792_                            0.212461786949248 	(obj:0)
_var793_                           0.0172297149369584 	(obj:0)
_var795_                            0.157234562297527 	(obj:0)
_var796_                             0.34645245362167 	(obj:0)
_var797_                            0.188471669150997 	(obj:0)
_var798_                             0.13255557659229 	(obj:0)
_var799_                            0.175021168657921 	(obj:0)
_var800_                            0.263985652799491 	(obj:0)
_var802_                            0.069594776691484 	(obj:0)
_var804_                            0.286425971985228 	(obj:0)
_var809_                           0.0843083044660515 	(obj:0)
_var810_                            0.136746755012796 	(obj:0)
_var811_                            0.240540092173857 	(obj:0)
_var812_                           0.0542996889918679 	(obj:0)
_var813_                           0.0380277286292194 	(obj:0)
_var814_                           0.0947449307771088 	(obj:0)
_var815_                            0.285048852883848 	(obj:0)
_var816_                            0.126705441439757 	(obj:0)
_var817_                            0.180750428152681 	(obj:0)
_var818_                            0.359384915581301 	(obj:0)
_var819_                          0.00541966979975239 	(obj:0)
_var824_                            0.265156173200005 	(obj:0)
_var825_                            0.134625263875872 	(obj:0)
_var826_                            0.141923440071881 	(obj:0)
_var827_                           0.0388787919341502 	(obj:0)
_var828_                            0.195126614167982 	(obj:0)
_var830_                            0.105912361447814 	(obj:0)
_var831_                            0.299733395169058 	(obj:0)
_var832_                          0.00453715415531364 	(obj:0)
_var837_                           0.0343428712038975 	(obj:0)
_var843_                          0.00504285843795019 	(obj:0)
_var845_                           0.0196644960441069 	(obj:0)
